(set-logic HORN)
(declare-fun !inv0 (Int (Array Int Int) Int Int Int ) Bool)
(assert (forall ((N@0 Int)(array@0 (Array Int Int))(v@0 Int)(lo@0 Int)(hi@0 Int)) (=> (and (> |N@0| 0) (forall ((k@0 Int)(l@0 Int)) (=> (and (<= 0 |k@0|) (< |k@0| (- |N@0| 1))) (=> (and (<= (+ |k@0| 1) |l@0|) (< |l@0| |N@0|)) (<= (select |array@0| |k@0|) (select |array@0| |l@0|))))) (= |lo@0| 0) (= |hi@0| (- |N@0| 1))) (!inv0 |N@0| |array@0| |v@0| |lo@0| |hi@0|))))
(assert (forall ((N@0 Int)(array@0 (Array Int Int))(v@0 Int)(lo@0 Int)(hi@0 Int)(mid@0 Int)(lo@1 Int)) (=> (and (!inv0 |N@0| |array@0| |v@0| |lo@1| |hi@0|) (> (- |hi@0| |lo@1|) 1) (< (select |array@0| |mid@0|) |v@0|) (= |lo@0| (+ |mid@0| 1)) (<= |lo@1| |mid@0|) (<= |mid@0| |hi@0|)) (!inv0 |N@0| |array@0| |v@0| |lo@0| |hi@0|))))
(assert (forall ((N@0 Int)(array@0 (Array Int Int))(v@0 Int)(lo@0 Int)(hi@0 Int)(mid@0 Int)(hi@1 Int)) (=> (and (!inv0 |N@0| |array@0| |v@0| |lo@0| |hi@1|) (> (- |hi@1| |lo@0|) 1) (not (< (select |array@0| |mid@0|) |v@0|)) (= |hi@0| |mid@0|) (<= |lo@0| |mid@0|) (<= |mid@0| |hi@1|)) (!inv0 |N@0| |array@0| |v@0| |lo@0| |hi@0|))))
(assert (forall ((N@0 Int)(array@0 (Array Int Int))(v@0 Int)(lo@0 Int)(hi@0 Int)(idx@0 Int)(idx@1 Int)) (=> (and (!inv0 |N@0| |array@0| |v@0| |lo@0| |hi@0|) (not (= |idx@0| (- 1))) (not (= |v@0| (select |array@0| |idx@0|))) (not (> (- |hi@0| |lo@0|) 1)) (= |idx@1| (- 1)) (= (select |array@0| |lo@0|) |v@0|) (= |idx@0| |lo@0|)) false)))
(assert (forall ((N@0 Int)(array@0 (Array Int Int))(v@0 Int)(lo@0 Int)(hi@0 Int)(idx@0 Int)(idx@1 Int)) (=> (and (!inv0 |N@0| |array@0| |v@0| |lo@0| |hi@0|) (not (= |idx@0| (- 1))) (not (= |v@0| (select |array@0| |idx@0|))) (not (> (- |hi@0| |lo@0|) 1)) (= |idx@1| (- 1)) (not (= (select |array@0| |lo@0|) |v@0|)) (= (select |array@0| |hi@0|) |v@0|) (= |idx@0| |hi@0|)) false)))
(assert (forall ((N@0 Int)(array@0 (Array Int Int))(v@0 Int)(lo@0 Int)(hi@0 Int)(idx@0 Int)) (=> (and (!inv0 |N@0| |array@0| |v@0| |lo@0| |hi@0|) (not (= |idx@0| (- 1))) (not (= |v@0| (select |array@0| |idx@0|))) (not (> (- |hi@0| |lo@0|) 1)) (= |idx@0| (- 1)) (not (= (select |array@0| |lo@0|) |v@0|)) (not (= (select |array@0| |hi@0|) |v@0|))) false)))
(check-sat)